8
0, 730, 709, 606, 93, 451, 587, 132
730, 0, 471, 361, 790, 696, 277, 656
709, 471, 0, 142, 800, 938, 648, 720
606, 361, 142, 0, 693, 799, 509, 600
93, 790, 800, 693, 0, 411, 619, 141
451, 696, 938, 799, 411, 0, 429, 326
587, 277, 648, 509, 619, 429, 0, 478
132, 656, 720, 600, 141, 326, 478, 0
